unsat
(define-fun skel ((n35 Bool) (n26 Bool) (n46 Bool) (i6 Bool)) Bool (and (or (or (not n35) (not n26)) (not n46)) i6))
11.91user 0.01system 0:11.92elapsed 100%CPU (0avgtext+0avgdata 41736maxresident)k
0inputs+8outputs (0major+5101minor)pagefaults 0swaps
